10 11
1 19
15 2
7 15
7 16
8 13
18 19
11 16
8 2
6 7
4 4
3 14
10 18
1 14
18 15
8 8
18 8
6 8
14 14
5 16
7 13
19 3
14 16
18 0
4 16
4 11
5 13
20 3
2 12
14 5
18 5
0 13
4 9
16 18
15 9
12 0
3 18
8 6
17 4
7 1
1 11
5 19
5 8
16 11
12 2
0 8
5 2
10 14
1 20
19 16
8 15
4 20
2 20
11 18
10 8
3 11
5 14
0 16
1 0
3 15
